100 8
463 771
890 527
496 372
584 230
402 385
414 331
102 283
674 587
340 911
661 577
474 103
839 325
743 566
859 221
614 262
885 586
97 537
737 882
580 219
825 719
293 904
830 580
227 830
499 359
450 642
464 703
211 395
150 294
790 351
493 320
842 563
889 716
833 851
918 623
479 561
82 386
72 450
779 893
838 730
60 445
95 288
914 644
440 777
588 145
520 636
816 529
623 535
407 666
424 139
793 734
812 323
954 478
396 612
496 78
841 318
875 492
699 851
415 752
480 292
422 59
577 184
352 874
113 485
509 131
758 449
501 144
925 929
912 403
200 441
456 449
608 449
850 638
486 700
747 592
642 267
862 489
613 549
780 438
804 197
755 720
754 221
846 917
197 755
396 368
496 431
777 799
809 386
494 738
721 795
927 475
491 144
266 926
535 640
944 278
429 608
939 266
173 453
899 606
33 276
523 653
